
(set-logic ALL) 

(declare-datatype MyList ((Nil) (Cons (head Real) (tail MyList)) )) 
(declare-fun l0 () MyList) 
(declare-fun l1 () MyList) 
(declare-fun l2 () MyList) 
(declare-fun l3 () MyList) 
(declare-fun i0 () Real) 
(declare-fun i1 () Real) 
(assert (= l0 l1) )
(assert (= l1 l2) )
(assert (= l0 Nil) )
(assert (or (is-Cons Nil) (= l3 l2)) )
(assert (= l1 Nil) )
(assert (or (= l2 l2) (= l0 Nil) (= l3 Nil) (= l1 Nil)) )
(assert (is-Nil l2) )
(assert (= l2 Nil) )
(check-sat)
